************************************************************************
file with basedata            : mf36_.bas
initial value random generator: 1121132890
************************************************************************
projects                      :  1
jobs (incl. supersource/sink ):  32
horizon                       :  238
RESOURCES
  - renewable                 :  2   R
  - nonrenewable              :  2   N
  - doubly constrained        :  0   D
************************************************************************
PROJECT INFORMATION:
pronr.  #jobs rel.date duedate tardcost  MPM-Time
    1     30      0       30       17       30
************************************************************************
PRECEDENCE RELATIONS:
jobnr.    #modes  #successors   successors
   1        1          3           2   3   4
   2        3          3           5   8  13
   3        3          2           6  20
   4        3          3           5   7  19
   5        3          2          16  30
   6        3          2          18  28
   7        3          3           9  10  14
   8        3          3          17  21  23
   9        3          3          11  12  16
  10        3          2          26  30
  11        3          3          17  20  21
  12        3          1          15
  13        3          3          16  19  24
  14        3          2          18  22
  15        3          3          17  25  26
  16        3          2          20  31
  17        3          2          22  29
  18        3          1          31
  19        3          1          27
  20        3          1          29
  21        3          2          25  26
  22        3          1          28
  23        3          1          25
  24        3          1          29
  25        3          2          27  30
  26        3          1          27
  27        3          1          28
  28        3          1          31
  29        3          1          32
  30        3          1          32
  31        3          1          32
  32        1          0        
************************************************************************
REQUESTS/DURATIONS:
jobnr. mode duration  R 1  R 2  N 1  N 2
------------------------------------------------------------------------
  1      1     0       0    0    0    0
  2      1     7       0    6    0    5
         2     7       0    7    0    3
         3    10       0    5    6    0
  3      1     2       2    0    9    0
         2     4       0    5    9    0
         3    10       0    3    8    0
  4      1     6       0    8    7    0
         2     6       0    8    0    5
         3     8       0    7    7    0
  5      1     1       7    0    7    0
         2     8       2    0    0    5
         3    10       0    3    0    5
  6      1     3       0    7    3    0
         2     3       8    0    0    2
         3     4       2    0    3    0
  7      1     1       9    0    5    0
         2     2       7    0    0    9
         3     6       6    0    0    8
  8      1     3       5    0    9    0
         2     5       0    4    8    0
         3    10       0    4    0    4
  9      1     2       7    0    4    0
         2     6       5    0    0    6
         3    10       4    0    1    0
 10      1     8       0    8    0    7
         2     8       0    7    9    0
         3    10       0    7    2    0
 11      1     1       0    6    0    8
         2     5       0    5    6    0
         3     7       0    2    5    0
 12      1     2       7    0    7    0
         2     5       0    8    3    0
         3     9       0    6    0    9
 13      1     4       6    0    0   10
         2     4       0    4    7    0
         3    10       7    0    7    0
 14      1     7       0   10    5    0
         2     8       3    0    0    5
         3     9       0    8    2    0
 15      1     1       0    5    6    0
         2     6       5    0    0    4
         3     9       2    0    4    0
 16      1     4       0    2    6    0
         2     5       0    1    4    0
         3     5       0    2    0    9
 17      1     6       0    5    0    5
         2     7       7    0   10    0
         3     9       0    1    9    0
 18      1     6       0    7    0    6
         2     6       2    0    0    4
         3     7       0    7    4    0
 19      1     1       0    9    0    7
         2     5       7    0    0    7
         3    10       6    0    0    6
 20      1     3       5    0    0    5
         2     4       4    0    0    3
         3     9       4    0    7    0
 21      1     1      10    0   10    0
         2     5       9    0    0   10
         3     5       0    8   10    0
 22      1     3       0    6    0    1
         2     4      10    0    6    0
         3     9       4    0    6    0
 23      1     2       0    5    0    4
         2     5       0    4    1    0
         3     8       4    0    0    3
 24      1     2       0    6    5    0
         2     3       6    0    0    4
         3     4       0    5    4    0
 25      1     7       0    9    0   10
         2     9       0    9    9    0
         3    10       7    0    0    2
 26      1     1       0    5    5    0
         2     2       4    0    0    7
         3     2       4    0    3    0
 27      1     2       9    0    6    0
         2     5       0    3    3    0
         3    10       8    0    0    9
 28      1     3       5    0    8    0
         2     6       3    0    5    0
         3     8       0    7    0    8
 29      1     3       5    0    4    0
         2     3       0    5    0    8
         3     7       0    4    0    7
 30      1     1       8    0    0    5
         2     1       0    1    0    7
         3     7       7    0    3    0
 31      1     6       9    0    2    0
         2     6       8    0    3    0
         3     6       0    7    0    5
 32      1     0       0    0    0    0
************************************************************************
RESOURCEAVAILABILITIES:
  R 1  R 2  N 1  N 2
   33   48   50   51
************************************************************************
